NAME : pairopt.-190910.tour
COMMENT : Length = -190910
COMMENT : Found by LKH-3 [Keld Helsgaun] Fri Oct 13 14:51:29 2023
TYPE : TOUR
DIMENSION : 36
TOUR_SECTION
1
2
23
32
33
35
31
18
7
10
22
20
16
8
13
21
11
6
9
17
24
25
26
14
36
3
27
28
29
15
19
30
34
4
12
5
-1
EOF
